(set-logic LIA)
(set-option :check-unsat-cores true)
(declare-fun v7 () Bool)
(declare-fun v9 () Bool)
(get-qe (forall ((q0 Int) (q1 Int)) (or (> (+ 37 37) 199) (exists ((q0 Int) (q1 Int)) (not (>= 761 37))) v9 v7 (>= 37 761))))
